623
603
470
607
480
423
601
451
649
573
499
397
460
528
676
558
671
490
506
550
501
562
524
441
591
526
645
508
452
409
444
532
532
437
584
634
483
588
631
513
543
540
659
546
488
606
481
489
526
534
542
596
594
492
579
541
502
410
618
572
505
609
431
578
562
556
633
519
570
527
467
436
550
647
556
492
465
571
553
551
474
606
590
540
459
631
521
548
501
572
534
431
562
452
515
575
636
520
503
523
